p tw 89 19581 2 
1 4 
1 6 
1 8 
1 10 
1 12 
1 14 
1 16 
1 18 
1 20 
1 22 
1 24 
1 26 
1 28 
1 30 
1 32 
1 34 
1 36 
1 38 
1 40 
1 42 
1 44 
1 46 
1 48 
1 50 
1 52 
1 54 
1 56 
1 58 
1 60 
1 62 
1 64 
1 66 
1 68 
1 70 
1 72 
1 74 
1 76 
1 78 
1 80 
1 82 
1 84 
1 86 
1 88 
2 3 
2 4 
2 6 
2 7 
2 8 
2 9 
2 13 
2 14 
2 18 
2 19 
2 20 
2 21 
2 22 
2 23 
2 29 
2 31 
2 32 
2 35 
2 37 
2 39 
2 40 
2 41 
2 43 
2 44 
2 46 
2 47 
2 48 
2 52 
2 59 
2 60 
2 65 
2 67 
2 70 
2 72 
2 74 
2 75 
2 77 
2 78 
2 81 
2 84 
2 86 
2 87 
2 88 
3 6 
3 11 
3 12 
3 13 
3 16 
3 17 
3 18 
3 25 
3 26 
3 27 
3 28 
3 29 
3 31 
3 34 
3 35 
3 37 
3 39 
3 43 
3 46 
3 50 
3 51 
3 52 
3 54 
3 55 
3 56 
3 57 
3 58 
3 59 
3 62 
3 63 
3 64 
3 65 
3 67 
3 69 
3 70 
3 72 
3 74 
3 77 
3 80 
3 81 
3 83 
3 84 
3 86 
4 5 
4 6 
4 8 
4 9 
4 10 
4 11 
4 15 
4 16 
4 20 
4 21 
4 22 
4 23 
4 24 
4 25 
4 31 
4 33 
4 34 
4 37 
4 39 
4 41 
4 42 
4 43 
4 45 
4 46 
4 48 
4 49 
4 50 
4 54 
4 61 
4 62 
4 67 
4 69 
4 72 
4 74 
4 76 
4 77 
4 79 
4 80 
4 83 
4 86 
4 88 
4 89 
5 8 
5 13 
5 14 
5 15 
5 18 
5 19 
5 20 
5 27 
5 28 
5 29 
5 30 
5 31 
5 33 
5 36 
5 37 
5 39 
5 41 
5 45 
5 48 
5 52 
5 53 
5 54 
5 56 
5 57 
5 58 
5 59 
5 60 
5 61 
5 64 
5 65 
5 66 
5 67 
5 69 
5 71 
5 72 
5 74 
5 76 
5 79 
5 82 
5 83 
5 85 
5 86 
5 88 
6 7 
6 8 
6 10 
6 11 
6 12 
6 13 
6 17 
6 18 
6 22 
6 23 
6 24 
6 25 
6 26 
6 27 
6 33 
6 35 
6 36 
6 39 
6 41 
6 43 
6 44 
6 45 
6 47 
6 48 
6 50 
6 51 
6 52 
6 56 
6 63 
6 64 
6 69 
6 71 
6 74 
6 76 
6 78 
6 79 
6 81 
6 82 
6 85 
6 88 
7 10 
7 15 
7 16 
7 17 
7 20 
7 21 
7 22 
7 29 
7 30 
7 31 
7 32 
7 33 
7 35 
7 38 
7 39 
7 41 
7 43 
7 47 
7 50 
7 54 
7 55 
7 56 
7 58 
7 59 
7 60 
7 61 
7 62 
7 63 
7 66 
7 67 
7 68 
7 69 
7 71 
7 73 
7 74 
7 76 
7 78 
7 81 
7 84 
7 85 
7 87 
7 88 
8 9 
8 10 
8 12 
8 13 
8 14 
8 15 
8 19 
8 20 
8 24 
8 25 
8 26 
8 27 
8 28 
8 29 
8 35 
8 37 
8 38 
8 41 
8 43 
8 45 
8 46 
8 47 
8 49 
8 50 
8 52 
8 53 
8 54 
8 58 
8 65 
8 66 
8 71 
8 73 
8 76 
8 78 
8 80 
8 81 
8 83 
8 84 
8 87 
9 12 
9 17 
9 18 
9 19 
9 22 
9 23 
9 24 
9 31 
9 32 
9 33 
9 34 
9 35 
9 37 
9 40 
9 41 
9 43 
9 45 
9 49 
9 52 
9 56 
9 57 
9 58 
9 60 
9 61 
9 62 
9 63 
9 64 
9 65 
9 68 
9 69 
9 70 
9 71 
9 73 
9 75 
9 76 
9 78 
9 80 
9 83 
9 86 
9 87 
9 89 
10 11 
10 12 
10 14 
10 15 
10 16 
10 17 
10 21 
10 22 
10 26 
10 27 
10 28 
10 29 
10 30 
10 31 
10 37 
10 39 
10 40 
10 43 
10 45 
10 47 
10 48 
10 49 
10 51 
10 52 
10 54 
10 55 
10 56 
10 60 
10 67 
10 68 
10 73 
10 75 
10 78 
10 80 
10 82 
10 83 
10 85 
10 86 
10 89 
11 14 
11 19 
11 20 
11 21 
11 24 
11 25 
11 26 
11 33 
11 34 
11 35 
11 36 
11 37 
11 39 
11 42 
11 43 
11 45 
11 47 
11 51 
11 54 
11 58 
11 59 
11 60 
11 62 
11 63 
11 64 
11 65 
11 66 
11 67 
11 70 
11 71 
11 72 
11 73 
11 75 
11 77 
11 78 
11 80 
11 82 
11 85 
11 88 
11 89 
12 13 
12 14 
12 16 
12 17 
12 18 
12 19 
12 23 
12 24 
12 28 
12 29 
12 30 
12 31 
12 32 
12 33 
12 39 
12 41 
12 42 
12 45 
12 47 
12 49 
12 50 
12 51 
12 53 
12 54 
12 56 
12 57 
12 58 
12 62 
12 69 
12 70 
12 75 
12 77 
12 80 
12 82 
12 84 
12 85 
12 87 
12 88 
13 16 
13 21 
13 22 
13 23 
13 26 
13 27 
13 28 
13 35 
13 36 
13 37 
13 38 
13 39 
13 41 
13 44 
13 45 
13 47 
13 49 
13 53 
13 56 
13 60 
13 61 
13 62 
13 64 
13 65 
13 66 
13 67 
13 68 
13 69 
13 72 
13 73 
13 74 
13 75 
13 77 
13 79 
13 80 
13 82 
13 84 
13 87 
14 15 
14 16 
14 18 
14 19 
14 20 
14 21 
14 25 
14 26 
14 30 
14 31 
14 32 
14 33 
14 34 
14 35 
14 41 
14 43 
14 44 
14 47 
14 49 
14 51 
14 52 
14 53 
14 55 
14 56 
14 58 
14 59 
14 60 
14 64 
14 71 
14 72 
14 77 
14 79 
14 82 
14 84 
14 86 
14 87 
14 89 
15 18 
15 23 
15 24 
15 25 
15 28 
15 29 
15 30 
15 37 
15 38 
15 39 
15 40 
15 41 
15 43 
15 46 
15 47 
15 49 
15 51 
15 55 
15 58 
15 62 
15 63 
15 64 
15 66 
15 67 
15 68 
15 69 
15 70 
15 71 
15 74 
15 75 
15 76 
15 77 
15 79 
15 81 
15 82 
15 84 
15 86 
15 89 
16 17 
16 18 
16 20 
16 21 
16 22 
16 23 
16 27 
16 28 
16 32 
16 33 
16 34 
16 35 
16 36 
16 37 
16 43 
16 45 
16 46 
16 49 
16 51 
16 53 
16 54 
16 55 
16 57 
16 58 
16 60 
16 61 
16 62 
16 66 
16 73 
16 74 
16 79 
16 81 
16 84 
16 86 
16 88 
16 89 
17 20 
17 25 
17 26 
17 27 
17 30 
17 31 
17 32 
17 39 
17 40 
17 41 
17 42 
17 43 
17 45 
17 48 
17 49 
17 51 
17 53 
17 57 
17 60 
17 64 
17 65 
17 66 
17 68 
17 69 
17 70 
17 71 
17 72 
17 73 
17 76 
17 77 
17 78 
17 79 
17 81 
17 83 
17 84 
17 86 
17 88 
18 19 
18 20 
18 22 
18 23 
18 24 
18 25 
18 29 
18 30 
18 34 
18 35 
18 36 
18 37 
18 38 
18 39 
18 45 
18 47 
18 48 
18 51 
18 53 
18 55 
18 56 
18 57 
18 59 
18 60 
18 62 
18 63 
18 64 
18 68 
18 75 
18 76 
18 81 
18 83 
18 86 
18 88 
19 22 
19 27 
19 28 
19 29 
19 32 
19 33 
19 34 
19 41 
19 42 
19 43 
19 44 
19 45 
19 47 
19 50 
19 51 
19 53 
19 55 
19 59 
19 62 
19 66 
19 67 
19 68 
19 70 
19 71 
19 72 
19 73 
19 74 
19 75 
19 78 
19 79 
19 80 
19 81 
19 83 
19 85 
19 86 
19 88 
20 21 
20 22 
20 24 
20 25 
20 26 
20 27 
20 31 
20 32 
20 36 
20 37 
20 38 
20 39 
20 40 
20 41 
20 47 
20 49 
20 50 
20 53 
20 55 
20 57 
20 58 
20 59 
20 61 
20 62 
20 64 
20 65 
20 66 
20 70 
20 77 
20 78 
20 83 
20 85 
20 88 
21 24 
21 29 
21 30 
21 31 
21 34 
21 35 
21 36 
21 43 
21 44 
21 45 
21 46 
21 47 
21 49 
21 52 
21 53 
21 55 
21 57 
21 61 
21 64 
21 68 
21 69 
21 70 
21 72 
21 73 
21 74 
21 75 
21 76 
21 77 
21 80 
21 81 
21 82 
21 83 
21 85 
21 87 
21 88 
22 23 
22 24 
22 26 
22 27 
22 28 
22 29 
22 33 
22 34 
22 38 
22 39 
22 40 
22 41 
22 42 
22 43 
22 49 
22 51 
22 52 
22 55 
22 57 
22 59 
22 60 
22 61 
22 63 
22 64 
22 66 
22 67 
22 68 
22 72 
22 79 
22 80 
22 85 
22 87 
23 26 
23 31 
23 32 
23 33 
23 36 
23 37 
23 38 
23 45 
23 46 
23 47 
23 48 
23 49 
23 51 
23 54 
23 55 
23 57 
23 59 
23 63 
23 66 
23 70 
23 71 
23 72 
23 74 
23 75 
23 76 
23 77 
23 78 
23 79 
23 82 
23 83 
23 84 
23 85 
23 87 
23 89 
24 25 
24 26 
24 28 
24 29 
24 30 
24 31 
24 35 
24 36 
24 40 
24 41 
24 42 
24 43 
24 44 
24 45 
24 51 
24 53 
24 54 
24 57 
24 59 
24 61 
24 62 
24 63 
24 65 
24 66 
24 68 
24 69 
24 70 
24 74 
24 81 
24 82 
24 87 
24 89 
25 28 
25 33 
25 34 
25 35 
25 38 
25 39 
25 40 
25 47 
25 48 
25 49 
25 50 
25 51 
25 53 
25 56 
25 57 
25 59 
25 61 
25 65 
25 68 
25 72 
25 73 
25 74 
25 76 
25 77 
25 78 
25 79 
25 80 
25 81 
25 84 
25 85 
25 86 
25 87 
25 89 
26 27 
26 28 
26 30 
26 31 
26 32 
26 33 
26 37 
26 38 
26 42 
26 43 
26 44 
26 45 
26 46 
26 47 
26 53 
26 55 
26 56 
26 59 
26 61 
26 63 
26 64 
26 65 
26 67 
26 68 
26 70 
26 71 
26 72 
26 76 
26 83 
26 84 
26 89 
27 30 
27 35 
27 36 
27 37 
27 40 
27 41 
27 42 
27 49 
27 50 
27 51 
27 52 
27 53 
27 55 
27 58 
27 59 
27 61 
27 63 
27 67 
27 70 
27 74 
27 75 
27 76 
27 78 
27 79 
27 80 
27 81 
27 82 
27 83 
27 86 
27 87 
27 88 
27 89 
28 29 
28 30 
28 32 
28 33 
28 34 
28 35 
28 39 
28 40 
28 44 
28 45 
28 46 
28 47 
28 48 
28 49 
28 55 
28 57 
28 58 
28 61 
28 63 
28 65 
28 66 
28 67 
28 69 
28 70 
28 72 
28 73 
28 74 
28 78 
28 85 
28 86 
29 32 
29 37 
29 38 
29 39 
29 42 
29 43 
29 44 
29 51 
29 52 
29 53 
29 54 
29 55 
29 57 
29 60 
29 61 
29 63 
29 65 
29 69 
29 72 
29 76 
29 77 
29 78 
29 80 
29 81 
29 82 
29 83 
29 84 
29 85 
29 88 
29 89 
30 31 
30 32 
30 34 
30 35 
30 36 
30 37 
30 41 
30 42 
30 46 
30 47 
30 48 
30 49 
30 50 
30 51 
30 57 
30 59 
30 60 
30 63 
30 65 
30 67 
30 68 
30 69 
30 71 
30 72 
30 74 
30 75 
30 76 
30 80 
30 87 
30 88 
31 34 
31 39 
31 40 
31 41 
31 44 
31 45 
31 46 
31 53 
31 54 
31 55 
31 56 
31 57 
31 59 
31 62 
31 63 
31 65 
31 67 
31 71 
31 74 
31 78 
31 79 
31 80 
31 82 
31 83 
31 84 
31 85 
31 86 
31 87 
32 33 
32 34 
32 36 
32 37 
32 38 
32 39 
32 43 
32 44 
32 48 
32 49 
32 50 
32 51 
32 52 
32 53 
32 59 
32 61 
32 62 
32 65 
32 67 
32 69 
32 70 
32 71 
32 73 
32 74 
32 76 
32 77 
32 78 
32 82 
32 89 
33 36 
33 41 
33 42 
33 43 
33 46 
33 47 
33 48 
33 55 
33 56 
33 57 
33 58 
33 59 
33 61 
33 64 
33 65 
33 67 
33 69 
33 73 
33 76 
33 80 
33 81 
33 82 
33 84 
33 85 
33 86 
33 87 
33 88 
33 89 
34 35 
34 36 
34 38 
34 39 
34 40 
34 41 
34 45 
34 46 
34 50 
34 51 
34 52 
34 53 
34 54 
34 55 
34 61 
34 63 
34 64 
34 67 
34 69 
34 71 
34 72 
34 73 
34 75 
34 76 
34 78 
34 79 
34 80 
34 84 
35 38 
35 43 
35 44 
35 45 
35 48 
35 49 
35 50 
35 57 
35 58 
35 59 
35 60 
35 61 
35 63 
35 66 
35 67 
35 69 
35 71 
35 75 
35 78 
35 82 
35 83 
35 84 
35 86 
35 87 
35 88 
35 89 
36 37 
36 38 
36 40 
36 41 
36 42 
36 43 
36 47 
36 48 
36 52 
36 53 
36 54 
36 55 
36 56 
36 57 
36 63 
36 65 
36 66 
36 69 
36 71 
36 73 
36 74 
36 75 
36 77 
36 78 
36 80 
36 81 
36 82 
36 86 
37 40 
37 45 
37 46 
37 47 
37 50 
37 51 
37 52 
37 59 
37 60 
37 61 
37 62 
37 63 
37 65 
37 68 
37 69 
37 71 
37 73 
37 77 
37 80 
37 84 
37 85 
37 86 
37 88 
37 89 
38 39 
38 40 
38 42 
38 43 
38 44 
38 45 
38 49 
38 50 
38 54 
38 55 
38 56 
38 57 
38 58 
38 59 
38 65 
38 67 
38 68 
38 71 
38 73 
38 75 
38 76 
38 77 
38 79 
38 80 
38 82 
38 83 
38 84 
38 88 
39 42 
39 47 
39 48 
39 49 
39 52 
39 53 
39 54 
39 61 
39 62 
39 63 
39 64 
39 65 
39 67 
39 70 
39 71 
39 73 
39 75 
39 79 
39 82 
39 86 
39 87 
39 88 
40 41 
40 42 
40 44 
40 45 
40 46 
40 47 
40 51 
40 52 
40 56 
40 57 
40 58 
40 59 
40 60 
40 61 
40 67 
40 69 
40 70 
40 73 
40 75 
40 77 
40 78 
40 79 
40 81 
40 82 
40 84 
40 85 
40 86 
41 44 
41 49 
41 50 
41 51 
41 54 
41 55 
41 56 
41 63 
41 64 
41 65 
41 66 
41 67 
41 69 
41 72 
41 73 
41 75 
41 77 
41 81 
41 84 
41 88 
41 89 
42 43 
42 44 
42 46 
42 47 
42 48 
42 49 
42 53 
42 54 
42 58 
42 59 
42 60 
42 61 
42 62 
42 63 
42 69 
42 71 
42 72 
42 75 
42 77 
42 79 
42 80 
42 81 
42 83 
42 84 
42 86 
42 87 
42 88 
43 46 
43 51 
43 52 
43 53 
43 56 
43 57 
43 58 
43 65 
43 66 
43 67 
43 68 
43 69 
43 71 
43 74 
43 75 
43 77 
43 79 
43 83 
43 86 
44 45 
44 46 
44 48 
44 49 
44 50 
44 51 
44 55 
44 56 
44 60 
44 61 
44 62 
44 63 
44 64 
44 65 
44 71 
44 73 
44 74 
44 77 
44 79 
44 81 
44 82 
44 83 
44 85 
44 86 
44 88 
44 89 
45 48 
45 53 
45 54 
45 55 
45 58 
45 59 
45 60 
45 67 
45 68 
45 69 
45 70 
45 71 
45 73 
45 76 
45 77 
45 79 
45 81 
45 85 
45 88 
46 47 
46 48 
46 50 
46 51 
46 52 
46 53 
46 57 
46 58 
46 62 
46 63 
46 64 
46 65 
46 66 
46 67 
46 73 
46 75 
46 76 
46 79 
46 81 
46 83 
46 84 
46 85 
46 87 
46 88 
47 50 
47 55 
47 56 
47 57 
47 60 
47 61 
47 62 
47 69 
47 70 
47 71 
47 72 
47 73 
47 75 
47 78 
47 79 
47 81 
47 83 
47 87 
48 49 
48 50 
48 52 
48 53 
48 54 
48 55 
48 59 
48 60 
48 64 
48 65 
48 66 
48 67 
48 68 
48 69 
48 75 
48 77 
48 78 
48 81 
48 83 
48 85 
48 86 
48 87 
48 89 
49 52 
49 57 
49 58 
49 59 
49 62 
49 63 
49 64 
49 71 
49 72 
49 73 
49 74 
49 75 
49 77 
49 80 
49 81 
49 83 
49 85 
49 89 
50 51 
50 52 
50 54 
50 55 
50 56 
50 57 
50 61 
50 62 
50 66 
50 67 
50 68 
50 69 
50 70 
50 71 
50 77 
50 79 
50 80 
50 83 
50 85 
50 87 
50 88 
50 89 
51 54 
51 59 
51 60 
51 61 
51 64 
51 65 
51 66 
51 73 
51 74 
51 75 
51 76 
51 77 
51 79 
51 82 
51 83 
51 85 
51 87 
52 53 
52 54 
52 56 
52 57 
52 58 
52 59 
52 63 
52 64 
52 68 
52 69 
52 70 
52 71 
52 72 
52 73 
52 79 
52 81 
52 82 
52 85 
52 87 
52 89 
53 56 
53 61 
53 62 
53 63 
53 66 
53 67 
53 68 
53 75 
53 76 
53 77 
53 78 
53 79 
53 81 
53 84 
53 85 
53 87 
53 89 
54 55 
54 56 
54 58 
54 59 
54 60 
54 61 
54 65 
54 66 
54 70 
54 71 
54 72 
54 73 
54 74 
54 75 
54 81 
54 83 
54 84 
54 87 
54 89 
55 58 
55 63 
55 64 
55 65 
55 68 
55 69 
55 70 
55 77 
55 78 
55 79 
55 80 
55 81 
55 83 
55 86 
55 87 
55 89 
56 57 
56 58 
56 60 
56 61 
56 62 
56 63 
56 67 
56 68 
56 72 
56 73 
56 74 
56 75 
56 76 
56 77 
56 83 
56 85 
56 86 
56 89 
57 60 
57 65 
57 66 
57 67 
57 70 
57 71 
57 72 
57 79 
57 80 
57 81 
57 82 
57 83 
57 85 
57 88 
57 89 
58 59 
58 60 
58 62 
58 63 
58 64 
58 65 
58 69 
58 70 
58 74 
58 75 
58 76 
58 77 
58 78 
58 79 
58 85 
58 87 
58 88 
59 62 
59 67 
59 68 
59 69 
59 72 
59 73 
59 74 
59 81 
59 82 
59 83 
59 84 
59 85 
59 87 
60 61 
60 62 
60 64 
60 65 
60 66 
60 67 
60 71 
60 72 
60 76 
60 77 
60 78 
60 79 
60 80 
60 81 
60 87 
60 89 
61 64 
61 69 
61 70 
61 71 
61 74 
61 75 
61 76 
61 83 
61 84 
61 85 
61 86 
61 87 
61 89 
62 63 
62 64 
62 66 
62 67 
62 68 
62 69 
62 73 
62 74 
62 78 
62 79 
62 80 
62 81 
62 82 
62 83 
62 89 
63 66 
63 71 
63 72 
63 73 
63 76 
63 77 
63 78 
63 85 
63 86 
63 87 
63 88 
63 89 
64 65 
64 66 
64 68 
64 69 
64 70 
64 71 
64 75 
64 76 
64 80 
64 81 
64 82 
64 83 
64 84 
64 85 
65 68 
65 73 
65 74 
65 75 
65 78 
65 79 
65 80 
65 87 
65 88 
65 89 
66 67 
66 68 
66 70 
66 71 
66 72 
66 73 
66 77 
66 78 
66 82 
66 83 
66 84 
66 85 
66 86 
66 87 
67 70 
67 75 
67 76 
67 77 
67 80 
67 81 
67 82 
67 89 
68 69 
68 70 
68 72 
68 73 
68 74 
68 75 
68 79 
68 80 
68 84 
68 85 
68 86 
68 87 
68 88 
68 89 
69 72 
69 77 
69 78 
69 79 
69 82 
69 83 
69 84 
70 71 
70 72 
70 74 
70 75 
70 76 
70 77 
70 81 
70 82 
70 86 
70 87 
70 88 
70 89 
71 74 
71 79 
71 80 
71 81 
71 84 
71 85 
71 86 
72 73 
72 74 
72 76 
72 77 
72 78 
72 79 
72 83 
72 84 
72 88 
72 89 
73 76 
73 81 
73 82 
73 83 
73 86 
73 87 
73 88 
74 75 
74 76 
74 78 
74 79 
74 80 
74 81 
74 85 
74 86 
75 78 
75 83 
75 84 
75 85 
75 88 
75 89 
76 77 
76 78 
76 80 
76 81 
76 82 
76 83 
76 87 
76 88 
77 80 
77 85 
77 86 
77 87 
78 79 
78 80 
78 82 
78 83 
78 84 
78 85 
78 89 
79 82 
79 87 
79 88 
79 89 
80 81 
80 82 
80 84 
80 85 
80 86 
80 87 
81 84 
81 89 
82 83 
82 84 
82 86 
82 87 
82 88 
82 89 
83 86 
84 85 
84 86 
84 88 
84 89 
85 88 
86 87 
86 88 
88 89 
